(declare-fun n () Int)
(declare-fun h_T2f (Int) Int)
(declare-fun t_T2f (Int) Bool)
(declare-fun h_T2s (Int) Int)
(declare-fun t_T2s (Int) Bool)
(declare-fun h_msec (Int) Int)
(declare-fun t_msec (Int) Bool)
(declare-fun m () Int)
(assert(= n 20))
(assert(let ((?x26 (h_T2f 1)))(= 0 ?x26)))
(assert(ite (t_T2f 1) (= (h_T2f 2) (+ (h_T2f 1) 1)) (= (h_T2f 2) (h_T2f 1))))
(assert(ite (t_T2f 2) (= (h_T2f 3) (+ (h_T2f 2) 1)) (= (h_T2f 3) (h_T2f 2))))
(assert(ite (t_T2f 3) (= (h_T2f 4) (+ (h_T2f 3) 1)) (= (h_T2f 4) (h_T2f 3))))
(assert(ite (t_T2f 4) (= (h_T2f 5) (+ (h_T2f 4) 1)) (= (h_T2f 5) (h_T2f 4))))
(assert(ite (t_T2f 5) (= (h_T2f 6) (+ (h_T2f 5) 1)) (= (h_T2f 6) (h_T2f 5))))
(assert(ite (t_T2f 6) (= (h_T2f 7) (+ (h_T2f 6) 1)) (= (h_T2f 7) (h_T2f 6))))
(assert(ite (t_T2f 7) (= (h_T2f 8) (+ (h_T2f 7) 1)) (= (h_T2f 8) (h_T2f 7))))
(assert(ite (t_T2f 8) (= (h_T2f 9) (+ (h_T2f 8) 1)) (= (h_T2f 9) (h_T2f 8))))
(assert(ite (t_T2f 9) (= (h_T2f 10) (+ (h_T2f 9) 1)) (= (h_T2f 10) (h_T2f 9))))
(assert(ite (t_T2f 10) (= (h_T2f 11) (+ (h_T2f 10) 1)) (= (h_T2f 11) (h_T2f 10))))
(assert(ite (t_T2f 11) (= (h_T2f 12) (+ (h_T2f 11) 1)) (= (h_T2f 12) (h_T2f 11))))
(assert(ite (t_T2f 12) (= (h_T2f 13) (+ (h_T2f 12) 1)) (= (h_T2f 13) (h_T2f 12))))
(assert(ite (t_T2f 13) (= (h_T2f 14) (+ (h_T2f 13) 1)) (= (h_T2f 14) (h_T2f 13))))
(assert(ite (t_T2f 14) (= (h_T2f 15) (+ (h_T2f 14) 1)) (= (h_T2f 15) (h_T2f 14))))
(assert(ite (t_T2f 15) (= (h_T2f 16) (+ (h_T2f 15) 1)) (= (h_T2f 16) (h_T2f 15))))
(assert(ite (t_T2f 16) (= (h_T2f 17) (+ (h_T2f 16) 1)) (= (h_T2f 17) (h_T2f 16))))
(assert(ite (t_T2f 17) (= (h_T2f 18) (+ (h_T2f 17) 1)) (= (h_T2f 18) (h_T2f 17))))
(assert(ite (t_T2f 18) (= (h_T2f 19) (+ (h_T2f 18) 1)) (= (h_T2f 19) (h_T2f 18))))
(assert(ite (t_T2f 19) (= (h_T2f 20) (+ (h_T2f 19) 1)) (= (h_T2f 20) (h_T2f 19))))
(assert(ite (t_T2f 20) (= (h_T2f 21) (+ (h_T2f 20) 1)) (= (h_T2f 21) (h_T2f 20))))
(assert(let ((?x169 (h_T2s 1)))(= 0 ?x169)))
(assert(ite (t_T2s 1) (= (h_T2s 2) (+ (h_T2s 1) 1)) (= (h_T2s 2) (h_T2s 1))))
(assert(ite (t_T2s 2) (= (h_T2s 3) (+ (h_T2s 2) 1)) (= (h_T2s 3) (h_T2s 2))))
(assert(ite (t_T2s 3) (= (h_T2s 4) (+ (h_T2s 3) 1)) (= (h_T2s 4) (h_T2s 3))))
(assert(ite (t_T2s 4) (= (h_T2s 5) (+ (h_T2s 4) 1)) (= (h_T2s 5) (h_T2s 4))))
(assert(ite (t_T2s 5) (= (h_T2s 6) (+ (h_T2s 5) 1)) (= (h_T2s 6) (h_T2s 5))))
(assert(ite (t_T2s 6) (= (h_T2s 7) (+ (h_T2s 6) 1)) (= (h_T2s 7) (h_T2s 6))))
(assert(ite (t_T2s 7) (= (h_T2s 8) (+ (h_T2s 7) 1)) (= (h_T2s 8) (h_T2s 7))))
(assert(ite (t_T2s 8) (= (h_T2s 9) (+ (h_T2s 8) 1)) (= (h_T2s 9) (h_T2s 8))))
(assert(ite (t_T2s 9) (= (h_T2s 10) (+ (h_T2s 9) 1)) (= (h_T2s 10) (h_T2s 9))))
(assert(ite (t_T2s 10) (= (h_T2s 11) (+ (h_T2s 10) 1)) (= (h_T2s 11) (h_T2s 10))))
(assert(ite (t_T2s 11) (= (h_T2s 12) (+ (h_T2s 11) 1)) (= (h_T2s 12) (h_T2s 11))))
(assert(ite (t_T2s 12) (= (h_T2s 13) (+ (h_T2s 12) 1)) (= (h_T2s 13) (h_T2s 12))))
(assert(ite (t_T2s 13) (= (h_T2s 14) (+ (h_T2s 13) 1)) (= (h_T2s 14) (h_T2s 13))))
(assert(ite (t_T2s 14) (= (h_T2s 15) (+ (h_T2s 14) 1)) (= (h_T2s 15) (h_T2s 14))))
(assert(ite (t_T2s 15) (= (h_T2s 16) (+ (h_T2s 15) 1)) (= (h_T2s 16) (h_T2s 15))))
(assert(ite (t_T2s 16) (= (h_T2s 17) (+ (h_T2s 16) 1)) (= (h_T2s 17) (h_T2s 16))))
(assert(ite (t_T2s 17) (= (h_T2s 18) (+ (h_T2s 17) 1)) (= (h_T2s 18) (h_T2s 17))))
(assert(ite (t_T2s 18) (= (h_T2s 19) (+ (h_T2s 18) 1)) (= (h_T2s 19) (h_T2s 18))))
(assert(ite (t_T2s 19) (= (h_T2s 20) (+ (h_T2s 19) 1)) (= (h_T2s 20) (h_T2s 19))))
(assert(ite (t_T2s 20) (= (h_T2s 21) (+ (h_T2s 20) 1)) (= (h_T2s 21) (h_T2s 20))))
(assert(let ((?x291 (h_msec 1)))(= 0 ?x291)))
(assert(ite (t_msec 1) (= (h_msec 2) (+ (h_msec 1) 1)) (= (h_msec 2) (h_msec 1))))
(assert(ite (t_msec 2) (= (h_msec 3) (+ (h_msec 2) 1)) (= (h_msec 3) (h_msec 2))))
(assert(ite (t_msec 3) (= (h_msec 4) (+ (h_msec 3) 1)) (= (h_msec 4) (h_msec 3))))
(assert(ite (t_msec 4) (= (h_msec 5) (+ (h_msec 4) 1)) (= (h_msec 5) (h_msec 4))))
(assert(ite (t_msec 5) (= (h_msec 6) (+ (h_msec 5) 1)) (= (h_msec 6) (h_msec 5))))
(assert(ite (t_msec 6) (= (h_msec 7) (+ (h_msec 6) 1)) (= (h_msec 7) (h_msec 6))))
(assert(ite (t_msec 7) (= (h_msec 8) (+ (h_msec 7) 1)) (= (h_msec 8) (h_msec 7))))
(assert(ite (t_msec 8) (= (h_msec 9) (+ (h_msec 8) 1)) (= (h_msec 9) (h_msec 8))))
(assert(ite (t_msec 9) (= (h_msec 10) (+ (h_msec 9) 1)) (= (h_msec 10) (h_msec 9))))
(assert(ite (t_msec 10) (= (h_msec 11) (+ (h_msec 10) 1)) (= (h_msec 11) (h_msec 10))))
(assert(ite (t_msec 11) (= (h_msec 12) (+ (h_msec 11) 1)) (= (h_msec 12) (h_msec 11))))
(assert(ite (t_msec 12) (= (h_msec 13) (+ (h_msec 12) 1)) (= (h_msec 13) (h_msec 12))))
(assert(ite (t_msec 13) (= (h_msec 14) (+ (h_msec 13) 1)) (= (h_msec 14) (h_msec 13))))
(assert(ite (t_msec 14) (= (h_msec 15) (+ (h_msec 14) 1)) (= (h_msec 15) (h_msec 14))))
(assert(ite (t_msec 15) (= (h_msec 16) (+ (h_msec 15) 1)) (= (h_msec 16) (h_msec 15))))
(assert(ite (t_msec 16) (= (h_msec 17) (+ (h_msec 16) 1)) (= (h_msec 17) (h_msec 16))))
(assert(ite (t_msec 17) (= (h_msec 18) (+ (h_msec 17) 1)) (= (h_msec 18) (h_msec 17))))
(assert(ite (t_msec 18) (= (h_msec 19) (+ (h_msec 18) 1)) (= (h_msec 19) (h_msec 18))))
(assert(ite (t_msec 19) (= (h_msec 20) (+ (h_msec 19) 1)) (= (h_msec 20) (h_msec 19))))
(assert(ite (t_msec 20) (= (h_msec 21) (+ (h_msec 20) 1)) (= (h_msec 21) (h_msec 20))))
(assert(forall ((x Int) )(=> (and (>= x 1) (<= x n)) (or (t_T2f x) (t_T2s x) (t_msec x)))))
(assert(forall ((x Int) )(let (($x442 (and (t_msec m) (t_T2s x) (= (- (h_msec m) (h_msec x)) 2))))
 (let (($x447 (exists ((m Int) )(let (($x425 (t_T2f m)))
 (and (>= m (+ x 2)) $x425)))
 ))
 (let (($x427 (<= x n)))
 (let (($x428 (>= x 1)))
 (=> (and $x428 $x427 $x447) $x442))))))
 )
(assert(forall ((x Int) )(let (($x425 (t_T2f x)))
 (let (($x457 (and (t_msec x) (> (h_msec x) 0) (= (mod (+ (h_msec x) 1) 5) 0))))
 (let (($x427 (<= x n)))
 (let (($x428 (>= x 1)))
 (and (=> (and $x428 $x427 $x425) $x457) (=> (and $x428 $x427 $x457) $x425)))))))
 )
(assert(= (t_msec 1) true))
(assert(= (t_msec 2) true))
(assert(= (t_msec 3) true))
(assert(= (t_msec 4) true))
(assert(= (t_msec 5) true))
(assert(= (t_msec 6) true))
(assert(= (t_msec 7) true))
(assert(= (t_msec 8) true))
(assert(= (t_msec 9) true))
(assert(= (t_msec 10) true))
(assert(= (t_msec 11) true))
(assert(= (t_msec 12) true))
(assert(= (t_msec 13) true))
(assert(= (t_msec 14) true))
(assert(= (t_msec 15) true))
(assert(= (t_msec 16) true))
(assert(= (t_msec 17) true))
(assert(= (t_msec 18) true))
(assert(= (t_msec 19) true))
(assert(= (t_msec 20) true))
(check-sat)